(set-info :Origin "This instance was generated by: BanditFuzz-- an RL fuzzer for SMT solvers" )
(set-info :Author "Joe Scott, Fed Mora, Vijay Ganesh" )
(set-info :Contact "Joe Scott, joseph.scott@uwaterloo.ca")
; solvers/z3.sh
; 	time => 0.9465353488922119
; 	answer => sat
; solvers/bitwuzla.sh
; 	time => 0.19227957725524902
; 	answer => sat
; solvers/cvc4.sh
; 	time => 0.09782862663269043
; 	answer => err
(set-logic QF_BV)
(declare-const bool_0 Bool)
(declare-const bool_1 Bool)
(declare-const bool_2 Bool)
(declare-const bool_3 Bool)
(declare-const bool_4 Bool)
(declare-const bv_0 (_ BitVec 32))
(declare-const bv_1 (_ BitVec 32))
(declare-const bv_2 (_ BitVec 32))
(declare-const bv_3 (_ BitVec 32))
(declare-const bv_4 (_ BitVec 32))
(assert (bvslt (bvxnor (bvsrem #x588144ae  bv_4) (bvadd bv_1 #x03fe78da )) (bvsdiv (bvxnor bv_1 #x27c3b438 ) (bvnand bv_2 bv_1))))
(assert (or (bvsgt (bvurem #xae27e724  #x1e9df6e5 ) (bvnand #xf1667cd0  bv_0)) (not (not bool_2))))
(assert (=> (=> (bvuge #xf236e259  #x87fb3535 ) (bvuge bv_3 bv_4)) (bvugt (bvsub bv_3 #x1a9c3256 ) (bvnor #x4cf6203a  #x6bbc39db ))))
(assert (bvsgt (bvashr (bvsub #x4c83cc8e  #x5590f621 ) (bvnor bv_3 #x57644a38 )) (bvor (bvnor #xca08a396  bv_1) (bvxnor #x1bb15069  bv_3))))
(assert (bvslt (bvsub (bvsmod #x205662d4  bv_1) (bvnand bv_0 #x5be025f6 )) (bvsub (bvurem bv_3 bv_2) (bvnand #xc6cdf48f  #x5154cc8b ))))
(check-sat)
(exit)
